LAMMPS (11 Feb 2026 - Development - 557ec66658-modified)
OMP_NUM_THREADS environment is not set. Defaulting to 1 thread.
  using 1 OpenMP thread(s) per MPI task
Lattice spacing in x,y,z = 1.1655347 2.0187654 1.1655347
Created orthogonal box = (0 0 -0.58276737) to (58.276737 40.375308 0.58276737)
  2 by 2 by 1 MPI processor grid
Created 361 atoms
  using lattice units in orthogonal box = (0 0 -0.58276737) to (58.276737 40.375308 0.58276737)
  create_atoms CPU = 0.000 seconds
Generated 0 of 0 mixed pair_coeff terms from geometric mixing rule
ALL information ...
	version: 0.9.3
	grid: tensor
	number of processors: 2 x 2 y 1 z
	local load balancing ...
		trigger threshold: 0.9
Neighbor list info ...
  update: every = 1 steps, delay = 0 steps, check = yes
  max neighbors/atom: 2000, page size: 100000
  master list distance cutoff = 2.8
  ghost atom cutoff = 2.8
  binsize = 1.4, bins = 42 29 1
  1 neighbor lists, perpetual/occasional/extra = 1 0 0
  (1) pair lj/cut, perpetual
      attributes: half, newton on
      pair build: half/bin/atomonly/newton
      stencil: half/bin/2d
      bin: standard
Setting up Verlet run ...
  Unit style    : lj
  Current step  : 0
  Time step     : 0.005
Per MPI rank memory allocation (min/avg/max) = 2.939 | 3.002 | 3.066 Mbytes
   Step          Temp          E_pair         Press          f_5[1]         f_5[2]    
         0   25.701528     -29.143179     -1.2407285     -1             -1            
       100   26.269576     -29.713313      7.9052334      181            2.0055402    
       200   26.368336     -29.809962      1.6412462      112            1.2409972    
       300   26.479082     -29.920083      2.3678653      142            1.5734072    
       400   26.522239     -29.965537      6.6787858      142            1.5734072    
       500   25.725591     -29.168034      0.67065285     142            1.5734072    
       600   26.247693     -29.692706      7.9887712      141            1.5623269    
       700   26.237368     -29.676926      1.5987214      134            1.4847645    
       800   25.889643     -29.431589      4.6160859      135            1.4958449    
       900   23.635295     -27.372963      9.029962       140            1.5512465    
      1000   22.571904     -25.87422       1.8936085      126            1.3961219    
      1100   17.493795     -21.447274      9.502619       121            1.3407202    
      1200   17.214459     -20.726965      6.3578917      119            1.3185596    
      1300   16.424061     -19.757309      3.9028069      127            1.4072022    
      1400   15.024934     -18.107201      1.749481       133            1.4736842    
      1500   13.766051     -16.832679      1.1117386      136            1.5069252    
      1600   13.286242     -16.256621      1.7352918      137            1.5180055    
      1700   13.0857       -16.04896       1.8883725      136            1.5069252    
      1800   12.582184     -15.649067      2.4022412      125            1.3850416    
      1900   12.946892     -15.825502      1.7265537      119            1.3185596    
      2000   12.189027     -15.00063       1.5776561      114            1.2631579    
      2100   12.154377     -14.929958      0.68679637     126            1.3961219    
      2200   11.755014     -14.520663      1.590357       124            1.3739612    
      2300   11.656589     -14.34455       0.31803727     120            1.3296399    
      2400   11.819072     -14.504735      0.99177962     122            1.3518006    
      2500   11.188395     -13.871919      1.1365514      117            1.2963989    
      2600   10.691996     -13.569157      1.5913682      120            1.3296399    
      2700   11.098272     -13.754835      0.92202855     116            1.2853186    
      2800   10.865405     -13.518663      1.506413       113            1.2520776    
      2900   10.672283     -13.322908      1.5833618      110            1.2188366    
      3000   10.690825     -13.33743       1.2611935      109            1.2077562    
      3100   10.475194     -13.116416      1.032897       113            1.2520776    
      3200   9.6754016     -12.311608      1.2115464      109            1.2077562    
      3300   10.283161     -12.888998      1.1892912      106            1.1745152    
      3400   10.185282     -12.882595      1.5057694      109            1.2077562    
      3500   9.9771481     -12.604893      1.4213128      105            1.1634349    
      3600   9.9090129     -12.518173      1.3392434      104            1.1523546    
      3700   9.5526217     -12.104921      1.6166963      102            1.1301939    
      3800   9.6755684     -12.391516      1.3902762      103            1.1412742    
      3900   9.3541525     -11.883553      1.1185589      96             1.0637119    
      4000   9.5087969     -12.005781      1.3302874      97             1.0747922    
      4100   9.5721811     -12.092963      0.68016246     94             1.0415512    
      4200   9.1291494     -11.752982      1.2009977      93             1.0304709    
      4300   8.9718097     -11.432136      0.40867732     93             1.0304709    
      4400   8.9299516     -11.42217       1.6414117      95             1.0526316    
      4500   8.7971458     -11.309044      0.87155634     96             1.0637119    
      4600   8.7883088     -11.237464      0.8644806      98             1.0858726    
      4700   8.3481574     -10.820902      1.1285287      98             1.0858726    
      4800   8.4102181     -10.880229      0.83077514     99             1.0969529    
      4900   8.4403224     -10.893395      0.90392891     96             1.0637119    
      5000   7.9234566     -10.405635      0.88199612     98             1.0858726    
      5100   7.9379554     -10.410852      0.80612528     95             1.0526316    
      5200   8.08628       -10.533854      0.92359634     96             1.0637119    
      5300   8.3175807     -10.769285      0.50581977     94             1.0415512    
      5400   8.063807      -10.493329      0.79193433     97             1.0747922    
      5500   8.1179132     -10.557299      1.5704779      94             1.0415512    
      5600   7.9089612     -10.341376      0.80686866     95             1.0526316    
      5700   8.0654167     -10.497869      0.79189279     96             1.0637119    
      5800   7.8962041     -10.339928      0.67057723     94             1.0415512    
      5900   7.5816212     -10.008416      0.54639046     94             1.0415512    
      6000   7.9805656     -10.404806      0.62444987     94             1.0415512    
      6100   7.2969944     -9.794083       0.81062094     95             1.0526316    
      6200   7.6945884     -10.074524      0.30538856     96             1.0637119    
      6300   7.762071      -10.152041      0.91958705     98             1.0858726    
      6400   7.6800129     -10.077252      0.91852839     99             1.0969529    
      6500   7.6085843     -9.9852524      0.81145197     97             1.0747922    
      6600   7.3467144     -9.7108549      0.56784455     97             1.0747922    
      6700   7.3217422     -9.6864631      1.1320245      98             1.0858726    
      6800   7.1667991     -9.560797       0.82292911     96             1.0637119    
      6900   7.6058014     -10.039555      1.1483198      97             1.0747922    
      7000   7.0852004     -9.4619077      0.97777514     97             1.0747922    
      7100   7.5039235     -9.9626798      0.49206105     99             1.0969529    
      7200   7.1003112     -9.4959093      1.0207203      98             1.0858726    
      7300   7.2970895     -9.6389164      0.51282642     98             1.0858726    
      7400   6.8518027     -9.3131796      0.38397711     99             1.0969529    
      7500   7.1074662     -9.5580093      0.599757       98             1.0858726    
      7600   6.6602036     -9.0180651      0.51939112     99             1.0969529    
      7700   6.96678       -9.3126496      0.46461359     98             1.0858726    
      7800   6.937937      -9.2721496      0.50159493     100            1.1080332    
      7900   7.0433224     -9.3716636      0.64091677     97             1.0747922    
      8000   6.9052022     -9.2553768      1.0546633      99             1.0969529    
      8100   7.1294265     -9.5146177      0.82838438     94             1.0415512    
      8200   6.9890126     -9.4055172      0.59871583     95             1.0526316    
      8300   7.0199885     -9.4008519      0.26864115     96             1.0637119    
      8400   6.9792916     -9.4177302      0.98694769     100            1.1080332    
      8500   6.5469372     -8.889873       0.57636238     97             1.0747922    
      8600   6.562536      -8.869202       0.48652442     97             1.0747922    
      8700   6.8334913     -9.1864333      0.44026191     96             1.0637119    
      8800   6.5659081     -8.9293268      1.0238618      100            1.1080332    
      8900   6.2623009     -8.6385873      0.35269863     98             1.0858726    
      9000   6.6541305     -8.9578048      0.62033886     96             1.0637119    
      9100   6.6633352     -8.9880862      0.54427717     97             1.0747922    
      9200   6.7068815     -9.0361352      0.98515407     97             1.0747922    
      9300   6.3953026     -8.7012885      0.61285443     94             1.0415512    
      9400   6.6806508     -9.0094346      0.71386983     91             1.0083102    
      9500   6.387784      -8.7330575      0.91588526     94             1.0415512    
      9600   6.3299447     -8.6544951      0.34982176     96             1.0637119    
      9700   6.1656657     -8.4654136      0.81395224     98             1.0858726    
      9800   6.4679866     -8.822316       0.30476231     103            1.1412742    
      9900   6.0362688     -8.3242987      0.55324176     100            1.1080332    
     10000   6.367438      -8.6954696      0.92347924     102            1.1301939    
Loop time of 0.206314 on 4 procs for 10000 steps with 361 atoms

Performance: 20938966.385 tau/day, 48469.830 timesteps/s, 17.498 Matom-step/s
99.8% CPU use with 4 MPI tasks x 1 OpenMP threads

MPI task timing breakdown:
Section |  min time  |  avg time  |  max time  |%varavg| %total
---------------------------------------------------------------
Pair    | 0.021505   | 0.032365   | 0.053302   |   6.9 | 15.69
Neigh   | 0.028891   | 0.038824   | 0.057841   |   5.9 | 18.82
Comm    | 0.060973   | 0.10199    | 0.12358    |   7.7 | 49.44
Output  | 0.00076591 | 0.00084366 | 0.0010526  |   0.0 |  0.41
Modify  | 0.012134   | 0.013725   | 0.017231   |   1.7 |  6.65
Other   |            | 0.01856    |            |       |  9.00

Nlocal:          90.25 ave         102 max          79 min
Histogram: 2 0 0 0 0 0 0 0 0 2
Nghost:             35 ave          42 max          26 min
Histogram: 1 0 0 0 0 0 2 0 0 1
Neighs:         290.25 ave         509 max         146 min
Histogram: 1 1 0 0 1 0 0 0 0 1

Total # of neighbors = 1161
Ave neighs/atom = 3.2160665
Neighbor list builds = 3685
Dangerous builds = 0
Total wall time: 0:00:00
