LAMMPS (11 Feb 2026 - Development - 557ec66658-modified)
OMP_NUM_THREADS environment is not set. Defaulting to 1 thread.
  using 1 OpenMP thread(s) per MPI task
Lattice spacing in x,y,z = 1.1655347 2.0187654 1.1655347
Created orthogonal box = (0 0 -0.58276737) to (58.276737 40.375308 0.58276737)
  2 by 2 by 1 MPI processor grid
Created 361 atoms
  using lattice units in orthogonal box = (0 0 -0.58276737) to (58.276737 40.375308 0.58276737)
  create_atoms CPU = 0.001 seconds
Generated 0 of 0 mixed pair_coeff terms from geometric mixing rule
ALL information ...
	version: 0.9.3
	grid: staggered
	number of processors: 2 x 2 y 1 z
	global load balancing ...
		trigger threshold: 0.9
		bin width: 0.003
Neighbor list info ...
  update: every = 1 steps, delay = 0 steps, check = yes
  max neighbors/atom: 2000, page size: 100000
  master list distance cutoff = 2.8
  ghost atom cutoff = 2.8
  binsize = 1.4, bins = 42 29 1
  1 neighbor lists, perpetual/occasional/extra = 1 0 0
  (1) pair lj/cut, perpetual
      attributes: half, newton on
      pair build: half/bin/atomonly/newton
      stencil: half/bin/2d
      bin: standard
Setting up Verlet run ...
  Unit style    : lj
  Current step  : 0
  Time step     : 0.005
Per MPI rank memory allocation (min/avg/max) = 2.9 | 2.963 | 3.027 Mbytes
   Step          Temp          E_pair         Press          f_5[1]         f_5[2]    
         0   25.701528     -29.143179     -1.2407285     -1             -1            
       100   26.269576     -29.713313      7.9052334      116            1.2853186    
       200   26.368336     -29.809962      1.6412462      113            1.2520776    
       300   26.479082     -29.920083      2.3678653      115            1.2742382    
       400   26.522239     -29.965537      6.6787858      109            1.2077562    
       500   25.725591     -29.168034      0.67065285     112            1.2409972    
       600   26.247693     -29.692706      7.9887712      118            1.3074792    
       700   26.237368     -29.676926      1.5987214      115            1.2742382    
       800   25.889643     -29.431589      4.6160859      114            1.2631579    
       900   23.635295     -27.372963      9.029962       106            1.1745152    
      1000   22.571904     -25.87422       1.8936085      101            1.1191136    
      1100   17.493795     -21.447274      9.502619       99             1.0969529    
      1200   17.214459     -20.726965      6.3578921      95             1.0526316    
      1300   16.424125     -19.757295      3.9027832      100            1.1080332    
      1400   15.031181     -18.113916      1.7679359      97             1.0747922    
      1500   13.711205     -16.791896      1.4919845      94             1.0415512    
      1600   13.873998     -16.842294      1.3954825      95             1.0526316    
      1700   13.297011     -16.257058      1.462699       98             1.0858726    
      1800   12.816931     -15.821248      2.4400925      100            1.1080332    
      1900   12.100959     -15.030487      1.4896931      97             1.0747922    
      2000   12.008126     -14.917318      1.6005746      100            1.1080332    
      2100   12.242317     -15.154881      1.1171375      102            1.1301939    
      2200   12.191578     -15.115041      1.5882459      96             1.0637119    
      2300   11.31966      -14.254211      1.4309798      97             1.0747922    
      2400   11.495496     -14.379466      1.544176       97             1.0747922    
      2500   11.236141     -14.158308      1.6181989      92             1.0193906    
      2600   11.139524     -14.123282      1.3515408      94             1.0415512    
      2700   10.858076     -13.764158      1.4417455      94             1.0415512    
      2800   11.027795     -13.939619      0.93419011     96             1.0637119    
      2900   11.083263     -14.039079      1.5694792      94             1.0415512    
      3000   10.608801     -13.53832       1.0191093      94             1.0415512    
      3100   10.530991     -13.407621      1.0905463      99             1.0969529    
      3200   10.100752     -12.96371       1.449549       95             1.0526316    
      3300   9.8396548     -12.724029      0.58903823     93             1.0304709    
      3400   9.6622548     -12.50827       0.58355795     95             1.0526316    
      3500   9.764688      -12.637575      1.4142055      92             1.0193906    
      3600   9.6675424     -12.593073      1.6534195      93             1.0304709    
      3700   9.7494635     -12.64422       1.4132957      94             1.0415512    
      3800   9.3942807     -12.241828      0.59427322     93             1.0304709    
      3900   9.2322109     -12.070159      1.2400554      91             1.0083102    
      4000   8.8166597     -11.698306      0.88897341     94             1.0415512    
      4100   8.9792751     -11.81943       1.4958379      92             1.0193906    
      4200   8.9469055     -11.777936      0.81756912     93             1.0304709    
      4300   8.9237181     -11.715874      1.0599876      93             1.0304709    
      4400   8.6291479     -11.52422       0.5577257      92             1.0193906    
      4500   8.59175       -11.379833      0.77474012     93             1.0304709    
      4600   8.2838819     -11.081531      0.89648813     91             1.0083102    
      4700   8.6433738     -11.416274      1.2062202      95             1.0526316    
      4800   8.5939242     -11.372572      0.53507144     93             1.0304709    
      4900   8.5621226     -11.362343      1.5600809      92             1.0193906    
      5000   8.4986167     -11.322152      1.4423548      93             1.0304709    
      5100   8.3143934     -11.132454      0.43703732     96             1.0637119    
      5200   8.1005657     -10.857797      0.78130046     94             1.0415512    
      5300   8.1406506     -10.946329      0.9873968      91             1.0083102    
      5400   8.1021971     -10.867318      0.91912392     91             1.0083102    
      5500   8.0581402     -10.84255       0.7711883      94             1.0415512    
      5600   8.0333206     -10.804731      0.62076886     93             1.0304709    
      5700   7.99317       -10.732807      0.50728086     91             1.0083102    
      5800   7.7916157     -10.547604      1.0335924      94             1.0415512    
      5900   7.1999171     -9.9688352      0.9905217      92             1.0193906    
      6000   7.4959038     -10.22379       0.71747076     91             1.0083102    
      6100   7.3332164     -10.095679      1.0973454      93             1.0304709    
      6200   6.9296996     -9.6124791      0.47084268     95             1.0526316    
      6300   6.8974899     -9.6048859      0.8414338      96             1.0637119    
      6400   7.1815828     -9.8919958      0.91734917     93             1.0304709    
      6500   7.1141137     -9.8030324      0.91381513     91             1.0083102    
      6600   7.1983957     -9.8753516      0.67758932     91             1.0083102    
      6700   6.6859255     -9.3859441      0.79768789     92             1.0193906    
      6800   6.613529      -9.3020492      0.94469755     94             1.0415512    
      6900   6.5970591     -9.2530551      0.43682645     92             1.0193906    
      7000   6.9914973     -9.6709384      0.6540387      94             1.0415512    
      7100   6.6631611     -9.342081       0.079481619    94             1.0415512    
      7200   6.8038387     -9.4856259      0.73891422     94             1.0415512    
      7300   6.5655179     -9.2908276      0.93634273     96             1.0637119    
      7400   7.3979891     -10.107818      0.35114587     93             1.0304709    
      7500   6.9950057     -9.7188885      0.57909615     94             1.0415512    
      7600   7.4073859     -10.12351       1.1952352      93             1.0304709    
      7700   6.9204858     -9.6260336      0.53498219     93             1.0304709    
      7800   6.533809      -9.2078694      0.58232068     92             1.0193906    
      7900   6.7844167     -9.4505361      0.81010319     97             1.0747922    
      8000   6.9540443     -9.6427744      0.56495355     93             1.0304709    
      8100   6.531439      -9.1996067      0.36206856     94             1.0415512    
      8200   6.4377957     -9.0996709      0.48255576     91             1.0083102    
      8300   6.8294022     -9.5080377      0.74667412     92             1.0193906    
      8400   6.5226099     -9.1928246      0.46515805     96             1.0637119    
      8500   6.7019389     -9.3514677      0.46790553     93             1.0304709    
      8600   6.4238881     -9.1241169      0.52883231     93             1.0304709    
      8700   6.0648178     -8.7524105      0.31847069     94             1.0415512    
      8800   6.5397392     -9.2220096      0.66576399     93             1.0304709    
      8900   6.1760818     -8.8450925      0.030904906    93             1.0304709    
      9000   6.6065873     -9.2935053      0.74076582     91             1.0083102    
      9100   6.043669      -8.7195339      0.46952586     93             1.0304709    
      9200   6.4824651     -9.1358614      0.86996549     91             1.0083102    
      9300   6.194009      -8.8486621      0.28208944     92             1.0193906    
      9400   6.3422945     -8.9868847      0.62353059     93             1.0304709    
      9500   6.3828183     -9.0396482      0.68874556     94             1.0415512    
      9600   6.3018964     -8.937251       0.17473487     93             1.0304709    
      9700   6.1259549     -8.7470281      0.75158084     94             1.0415512    
      9800   6.2202551     -8.8442396      0.64462454     94             1.0415512    
      9900   5.841397      -8.4950506      0.64471475     93             1.0304709    
     10000   5.9728516     -8.6053167      0.53259315     93             1.0304709    
Loop time of 0.205421 on 4 procs for 10000 steps with 361 atoms

Performance: 21030031.213 tau/day, 48680.628 timesteps/s, 17.574 Matom-step/s
97.6% CPU use with 4 MPI tasks x 1 OpenMP threads

MPI task timing breakdown:
Section |  min time  |  avg time  |  max time  |%varavg| %total
---------------------------------------------------------------
Pair    | 0.018965   | 0.028404   | 0.03645    |   3.9 | 13.83
Neigh   | 0.026008   | 0.035734   | 0.044297   |   3.7 | 17.40
Comm    | 0.056843   | 0.0734     | 0.092375   |   4.9 | 35.73
Output  | 0.00057691 | 0.00066614 | 0.00088531 |   0.0 |  0.32
Modify  | 0.048247   | 0.048446   | 0.048591   |   0.1 | 23.58
Other   |            | 0.01877    |            |       |  9.14

Nlocal:          90.25 ave          91 max          90 min
Histogram: 3 0 0 0 0 0 0 0 0 1
Nghost:          34.75 ave          40 max          24 min
Histogram: 1 0 0 0 0 0 0 0 2 1
Neighs:         279.25 ave         464 max         148 min
Histogram: 1 1 0 0 0 1 0 0 0 1

Total # of neighbors = 1117
Ave neighs/atom = 3.0941828
Neighbor list builds = 3554
Dangerous builds = 0
Total wall time: 0:00:00
