LAMMPS (11 Feb 2026 - Development - 557ec66658-modified)
OMP_NUM_THREADS environment is not set. Defaulting to 1 thread.
  using 1 OpenMP thread(s) per MPI task
Lattice spacing in x,y,z = 1.1655347 2.0187654 1.1655347
Created orthogonal box = (0 0 -0.58276737) to (58.276737 40.375308 0.58276737)
  2 by 2 by 1 MPI processor grid
Created 361 atoms
  using lattice units in orthogonal box = (0 0 -0.58276737) to (58.276737 40.375308 0.58276737)
  create_atoms CPU = 0.001 seconds
Generated 0 of 0 mixed pair_coeff terms from geometric mixing rule
ALL information ...
	version: 0.9.3
	grid: staggered
	number of processors: 2 x 2 y 1 z
	global load balancing ...
		trigger threshold: 0.9
		bin width: 0.003
Neighbor list info ...
  update: every = 1 steps, delay = 0 steps, check = yes
  max neighbors/atom: 2000, page size: 100000
  master list distance cutoff = 2.8
  ghost atom cutoff = 2.8
  binsize = 1.4, bins = 42 29 1
  1 neighbor lists, perpetual/occasional/extra = 1 0 0
  (1) pair lj/cut, perpetual
      attributes: half, newton on
      pair build: half/bin/atomonly/newton
      stencil: half/bin/2d
      bin: standard
Setting up Verlet run ...
  Unit style    : lj
  Current step  : 0
  Time step     : 0.005
Per MPI rank memory allocation (min/avg/max) = 2.9 | 2.963 | 3.027 Mbytes
   Step          Temp          E_pair         Press          f_5[1]         f_5[2]    
         0   25.701528     -29.143179     -1.2407285     -1             -1            
       100   26.269576     -29.713313      7.9052334      116            1.2853186    
       200   26.368336     -29.809962      1.6412462      113            1.2520776    
       300   26.479082     -29.920083      2.3678653      115            1.2742382    
       400   26.522239     -29.965537      6.6787858      109            1.2077562    
       500   25.725591     -29.168034      0.67065285     112            1.2409972    
       600   26.247693     -29.692706      7.9887712      118            1.3074792    
       700   26.237368     -29.676926      1.5987214      115            1.2742382    
       800   25.889643     -29.431589      4.6160859      114            1.2631579    
       900   23.635295     -27.372963      9.029962       106            1.1745152    
      1000   22.571904     -25.87422       1.8936085      101            1.1191136    
      1100   17.493795     -21.447274      9.502619       99             1.0969529    
      1200   17.214459     -20.726965      6.3578921      95             1.0526316    
      1300   16.424125     -19.757295      3.9027832      100            1.1080332    
      1400   15.031181     -18.113916      1.7679359      97             1.0747922    
      1500   13.711205     -16.791896      1.4919845      94             1.0415512    
      1600   13.873998     -16.842294      1.3954825      95             1.0526316    
      1700   13.297011     -16.257058      1.462699       98             1.0858726    
      1800   12.81693      -15.821248      2.4400925      100            1.1080332    
      1900   12.100942     -15.030437      1.4897454      97             1.0747922    
      2000   12.009019     -14.91742       1.6019815      100            1.1080332    
      2100   12.210414     -15.139467      1.0965005      101            1.1191136    
      2200   12.183845     -15.11242       1.6436034      99             1.0969529    
      2300   11.874382     -14.765384      1.0402249      97             1.0747922    
      2400   11.402729     -14.278967      1.4648624      98             1.0858726    
      2500   10.862044     -13.722431      1.4146504      97             1.0747922    
      2600   11.160116     -14.056899      1.2998847      96             1.0637119    
      2700   10.757784     -13.605619      1.5485796      92             1.0193906    
      2800   10.934662     -13.779265      1.1858905      95             1.0526316    
      2900   10.90282      -13.796207      1.2853482      98             1.0858726    
      3000   10.452173     -13.295066      1.5974373      95             1.0526316    
      3100   10.427704     -13.268613      1.2085573      92             1.0193906    
      3200   10.080738     -12.995739      0.78581016     92             1.0193906    
      3300   10.200645     -13.037095      0.56463508     93             1.0304709    
      3400   9.7143739     -12.532397      0.93993234     92             1.0193906    
      3500   9.4469254     -12.226562      1.3386792      94             1.0415512    
      3600   9.3093348     -12.105793      0.79178595     97             1.0747922    
      3700   9.2200271     -12.144438      0.73731239     94             1.0415512    
      3800   8.8219501     -11.58188       1.2549504      93             1.0304709    
      3900   9.2858108     -11.986208      0.42792177     93             1.0304709    
      4000   8.8376569     -11.568578      1.1042942      93             1.0304709    
      4100   9.1592758     -11.832625      0.90231338     92             1.0193906    
      4200   9.123614      -11.803421      0.98918612     93             1.0304709    
      4300   8.6647815     -11.307223      1.0677194      92             1.0193906    
      4400   8.634341      -11.285518      1.0234381      93             1.0304709    
      4500   8.7741238     -11.41597       1.1024097      96             1.0637119    
      4600   8.7573255     -11.399311      0.81149686     92             1.0193906    
      4700   8.2957417     -10.993644      0.64516204     93             1.0304709    
      4800   8.2402151     -10.876807      1.0747099      92             1.0193906    
      4900   8.0832848     -10.730237      0.62190797     92             1.0193906    
      5000   7.6174271     -10.203937      1.1452144      93             1.0304709    
      5100   7.4613156     -10.042051      0.41811614     93             1.0304709    
      5200   7.4386355     -10.051243      1.3262831      93             1.0304709    
      5300   7.4590562     -10.029038      0.74203566     92             1.0193906    
      5400   7.840232      -10.438329      0.88402723     93             1.0304709    
      5500   7.5815859     -10.15229       0.71003871     93             1.0304709    
      5600   7.4914902     -10.105769      0.5730304      93             1.0304709    
      5700   7.7416975     -10.346191      0.56843708     92             1.0193906    
      5800   7.5007002     -10.089269      1.1410751      92             1.0193906    
      5900   7.5308593     -10.114203      0.38486158     94             1.0415512    
      6000   7.3421291     -9.9321966      0.41358361     91             1.0083102    
      6100   7.6481529     -10.259506      0.92757592     92             1.0193906    
      6200   7.21823       -9.8076035      0.81363398     96             1.0637119    
      6300   7.3527576     -9.9293132      1.3163034      93             1.0304709    
      6400   7.4127165     -9.9850936      0.69924851     92             1.0193906    
      6500   7.7487164     -10.354481      0.83490856     94             1.0415512    
      6600   7.9347022     -10.543207      0.72004264     92             1.0193906    
      6700   7.3124532     -9.9283649      1.2764613      92             1.0193906    
      6800   7.4837589     -10.082744      1.0363146      92             1.0193906    
      6900   6.6971486     -9.3682898      0.32567869     93             1.0304709    
      7000   6.9569149     -9.5297072      0.89162552     92             1.0193906    
      7100   6.9381235     -9.5168996      0.98481479     92             1.0193906    
      7200   6.9734836     -9.5729779      0.50494489     94             1.0415512    
      7300   6.5277466     -9.0632254      0.42150178     93             1.0304709    
      7400   6.6816491     -9.2143609      0.4838174      91             1.0083102    
      7500   6.8586612     -9.3950574      0.77801401     95             1.0526316    
      7600   6.6294169     -9.1868763      0.35053088     93             1.0304709    
      7700   6.4450165     -8.9870135      0.94608257     93             1.0304709    
      7800   6.4351176     -8.9648262      0.54119781     92             1.0193906    
      7900   6.2939789     -8.8103633      0.48593535     92             1.0193906    
      8000   6.1691783     -8.6838078      0.26809941     94             1.0415512    
      8100   6.5883822     -9.1407458      0.67251163     92             1.0193906    
      8200   6.4440465     -9.0052922      0.55575723     92             1.0193906    
      8300   6.7378894     -9.272489       1.1022367      95             1.0526316    
      8400   6.5705418     -9.1093009      0.90552722     92             1.0193906    
      8500   6.2385463     -8.7814528      0.58665256     93             1.0304709    
      8600   6.3276563     -8.9271808      0.39748434     93             1.0304709    
      8700   6.2641699     -8.7697711      0.48135939     96             1.0637119    
      8800   6.2937601     -8.8027328      0.37061508     91             1.0083102    
      8900   6.2121961     -8.7479961      0.72490913     94             1.0415512    
      9000   6.2091997     -8.7179521      0.95880141     92             1.0193906    
      9100   5.9352466     -8.443683       0.18011715     94             1.0415512    
      9200   6.0455461     -8.537811       0.31220523     94             1.0415512    
      9300   5.9646824     -8.4714029      0.39497114     93             1.0304709    
      9400   5.7171549     -8.210945       0.082219675    93             1.0304709    
      9500   5.9198248     -8.411914       0.44139136     94             1.0415512    
      9600   5.9273464     -8.4204585      0.70017066     93             1.0304709    
      9700   6.1594109     -8.7052278      0.4549235      92             1.0193906    
      9800   6.2547434     -8.7605536      0.520778       94             1.0415512    
      9900   6.3014953     -8.8273645      0.60882802     97             1.0747922    
     10000   6.1708192     -8.7236076      0.80617665     92             1.0193906    
Loop time of 0.204656 on 4 procs for 10000 steps with 361 atoms

Performance: 21108629.651 tau/day, 48862.569 timesteps/s, 17.639 Matom-step/s
98.5% CPU use with 4 MPI tasks x 1 OpenMP threads

MPI task timing breakdown:
Section |  min time  |  avg time  |  max time  |%varavg| %total
---------------------------------------------------------------
Pair    | 0.019335   | 0.027632   | 0.036497   |   3.8 | 13.50
Neigh   | 0.026596   | 0.035764   | 0.044169   |   3.8 | 17.48
Comm    | 0.056247   | 0.073384   | 0.090516   |   4.8 | 35.86
Output  | 0.00059089 | 0.00065913 | 0.00084803 |   0.0 |  0.32
Modify  | 0.048162   | 0.048328   | 0.048434   |   0.1 | 23.61
Other   |            | 0.01889    |            |       |  9.23

Nlocal:          90.25 ave          91 max          90 min
Histogram: 3 0 0 0 0 0 0 0 0 1
Nghost:          38.75 ave          47 max          30 min
Histogram: 1 0 1 0 0 0 0 0 1 1
Neighs:         289.25 ave         436 max         147 min
Histogram: 1 0 0 1 0 1 0 0 0 1

Total # of neighbors = 1157
Ave neighs/atom = 3.2049861
Neighbor list builds = 3649
Dangerous builds = 0
Total wall time: 0:00:00
