LAMMPS (11 Feb 2026 - Development - 557ec66658-modified)
OMP_NUM_THREADS environment is not set. Defaulting to 1 thread.
  using 1 OpenMP thread(s) per MPI task
Lattice spacing in x,y,z = 1.1655347 2.0187654 1.1655347
Created orthogonal box = (0 0 -0.58276737) to (58.276737 40.375308 0.58276737)
  2 by 2 by 1 MPI processor grid
Created 361 atoms
  using lattice units in orthogonal box = (0 0 -0.58276737) to (58.276737 40.375308 0.58276737)
  create_atoms CPU = 0.001 seconds
Generated 0 of 0 mixed pair_coeff terms from geometric mixing rule
ALL information ...
	version: 0.9.3
	grid: staggered
	number of processors: 2 x 2 y 1 z
	local load balancing ...
		trigger threshold: 0.9
Neighbor list info ...
  update: every = 1 steps, delay = 0 steps, check = yes
  max neighbors/atom: 2000, page size: 100000
  master list distance cutoff = 2.8
  ghost atom cutoff = 2.8
  binsize = 1.4, bins = 42 29 1
  1 neighbor lists, perpetual/occasional/extra = 1 0 0
  (1) pair lj/cut, perpetual
      attributes: half, newton on
      pair build: half/bin/atomonly/newton
      stencil: half/bin/2d
      bin: standard
Setting up Verlet run ...
  Unit style    : lj
  Current step  : 0
  Time step     : 0.005
Per MPI rank memory allocation (min/avg/max) = 2.9 | 2.963 | 3.027 Mbytes
   Step          Temp          E_pair         Press          f_5[1]         f_5[2]    
         0   25.701528     -29.143179     -1.2407285     -1             -1            
       100   26.269576     -29.713313      7.9052334      181            2.0055402    
       200   26.368336     -29.809962      1.6412462      112            1.2409972    
       300   26.479082     -29.920083      2.3678653      142            1.5734072    
       400   26.522239     -29.965537      6.6787858      142            1.5734072    
       500   25.725591     -29.168034      0.67065285     142            1.5734072    
       600   26.247693     -29.692706      7.9887712      135            1.4958449    
       700   26.237368     -29.676926      1.5987214      135            1.4958449    
       800   25.889643     -29.431589      4.6160859      135            1.4958449    
       900   23.635295     -27.372963      9.029962       138            1.5290859    
      1000   22.571904     -25.87422       1.8936085      125            1.3850416    
      1100   17.493795     -21.447274      9.502619       119            1.3185596    
      1200   17.21446      -20.726965      6.3578928      112            1.2409972    
      1300   16.424399     -19.757496      3.9024751      125            1.3850416    
      1400   15.100738     -18.181396      1.7962051      126            1.3961219    
      1500   13.600555     -16.662834      1.4718408      129            1.4293629    
      1600   13.936728     -16.962375      2.1689079      129            1.4293629    
      1700   13.474739     -16.45001       2.2258659      121            1.3407202    
      1800   12.53484      -15.573786      1.8843514      108            1.1966759    
      1900   12.478052     -15.386708      1.7073399      111            1.2299169    
      2000   12.379401     -15.256043      1.5772461      113            1.2520776    
      2100   11.81881      -14.760745      1.4465502      115            1.2742382    
      2200   11.889686     -14.759526      1.5545526      111            1.2299169    
      2300   11.663272     -14.505568      1.3540207      111            1.2299169    
      2400   11.704737     -14.58037       1.625695       108            1.1966759    
      2500   11.474424     -14.329898      1.1206036      106            1.1745152    
      2600   11.47002      -14.323532      0.95210383     108            1.1966759    
      2700   11.064514     -14.123664      1.5225267      105            1.1634349    
      2800   10.970338     -13.840995      1.2678132      104            1.1523546    
      2900   11.10749      -13.966968      1.5874925      105            1.1634349    
      3000   11.161675     -14.010914      1.5740297      99             1.0969529    
      3100   10.741571     -13.628732      1.226253       100            1.1080332    
      3200   10.466112     -13.279717      1.321048       103            1.1412742    
      3300   10.602099     -13.456974      1.4380166      103            1.1412742    
      3400   10.318801     -13.140842      1.1932999      103            1.1412742    
      3500   9.8878943     -12.69158       1.1746739      104            1.1523546    
      3600   10.10409      -12.876413      1.0226095      102            1.1301939    
      3700   9.4757553     -12.185178      1.7826553      97             1.0747922    
      3800   9.4216158     -12.155779      0.61413222     100            1.1080332    
      3900   9.1669688     -11.881942      0.72431156     100            1.1080332    
      4000   9.0081403     -11.708205      1.1802785      99             1.0969529    
      4100   8.898991      -11.640216      0.86576162     96             1.0637119    
      4200   8.7342908     -11.502147      0.44506194     95             1.0526316    
      4300   8.8255363     -11.545495      0.61422537     96             1.0637119    
      4400   9.0086685     -11.715316      1.1925102      96             1.0637119    
      4500   9.0362135     -11.718902      1.0592722      99             1.0969529    
      4600   8.7129158     -11.398653      1.5130224      94             1.0415512    
      4700   8.9666058     -11.645228      0.36721099     92             1.0193906    
      4800   8.7189191     -11.395985      1.017695       92             1.0193906    
      4900   8.1440271     -10.838467      0.60967774     94             1.0415512    
      5000   8.4995827     -11.156665      0.81655841     95             1.0526316    
      5100   8.2418909     -10.873332      0.90581792     94             1.0415512    
      5200   8.4441105     -11.080819      0.59949047     93             1.0304709    
      5300   7.6809575     -10.279494      0.74305854     97             1.0747922    
      5400   7.7727539     -10.439873      0.8042678      95             1.0526316    
      5500   7.8982537     -10.487622      0.80326432     94             1.0415512    
      5600   7.3431025     -9.9732759      0.86895455     91             1.0083102    
      5700   7.4928601     -10.179578      1.1871882      94             1.0415512    
      5800   7.3721888     -9.9605125      0.62983538     92             1.0193906    
      5900   7.6171324     -10.198196      0.81664198     94             1.0415512    
      6000   7.9103575     -10.548711      0.54520646     91             1.0083102    
      6100   7.6507279     -10.266741      0.81192092     92             1.0193906    
      6200   7.6162576     -10.237133      0.76817821     92             1.0193906    
      6300   7.8917838     -10.513772      1.1899794      92             1.0193906    
      6400   7.6638038     -10.285372      0.3155432      95             1.0526316    
      6500   7.3563442     -9.9950242      0.56440487     93             1.0304709    
      6600   7.4594019     -10.068924      0.98679836     94             1.0415512    
      6700   7.5621508     -10.18245       0.66485689     96             1.0637119    
      6800   7.2860839     -9.885107       0.69251294     94             1.0415512    
      6900   7.4108385     -10.036709      0.92910643     95             1.0526316    
      7000   6.9896144     -9.5847958      1.1672632      93             1.0304709    
      7100   6.9986835     -9.5653751      0.66353464     92             1.0193906    
      7200   6.7279744     -9.293468       0.70770994     95             1.0526316    
      7300   6.7822603     -9.3629483      0.9272318      96             1.0637119    
      7400   7.0666953     -9.6577216      1.3771689      95             1.0526316    
      7500   6.7715751     -9.348696       0.42936586     92             1.0193906    
      7600   6.9155112     -9.4885857      0.65856163     94             1.0415512    
      7700   6.9222384     -9.4990947      1.3497334      92             1.0193906    
      7800   6.4335204     -8.9813937      0.88658908     93             1.0304709    
      7900   6.8705325     -9.433806       0.86285768     95             1.0526316    
      8000   6.5954538     -9.1585413      0.76312296     94             1.0415512    
      8100   6.3332352     -8.8526617      0.74966258     94             1.0415512    
      8200   6.5902952     -9.1265084      0.37177989     95             1.0526316    
      8300   6.4355005     -8.9942928      0.92318945     94             1.0415512    
      8400   6.0602689     -8.5922376      1.062377       96             1.0637119    
      8500   6.6030163     -9.1938882      0.64108292     93             1.0304709    
      8600   6.407679      -8.931869       0.44584851     95             1.0526316    
      8700   6.4360124     -8.9820918      0.54163194     92             1.0193906    
      8800   6.4077254     -8.9611616      0.60003114     93             1.0304709    
      8900   6.3142551     -8.8521108      0.80329251     96             1.0637119    
      9000   6.4985683     -9.0447035      0.69708988     94             1.0415512    
      9100   6.2114802     -8.7306264      0.62994869     92             1.0193906    
      9200   6.2322329     -8.7774778      1.1192874      92             1.0193906    
      9300   6.3960188     -8.952792       0.66363989     93             1.0304709    
      9400   5.984254      -8.5050516      0.82809664     92             1.0193906    
      9500   6.2373757     -8.793971       0.6769817      92             1.0193906    
      9600   5.9082476     -8.4244615      0.77775629     93             1.0304709    
      9700   6.0171687     -8.6188639      0.79621698     93             1.0304709    
      9800   6.233192      -8.7458477      0.7782251      92             1.0193906    
      9900   6.2045968     -8.7568269      0.57210557     95             1.0526316    
     10000   6.6756567     -9.2456935      0.63457262     95             1.0526316    
Loop time of 0.174256 on 4 procs for 10000 steps with 361 atoms

Performance: 24791099.194 tau/day, 57386.804 timesteps/s, 20.717 Matom-step/s
99.8% CPU use with 4 MPI tasks x 1 OpenMP threads

MPI task timing breakdown:
Section |  min time  |  avg time  |  max time  |%varavg| %total
---------------------------------------------------------------
Pair    | 0.019082   | 0.027881   | 0.03805    |   4.1 | 16.00
Neigh   | 0.026151   | 0.03537    | 0.045306   |   3.8 | 20.30
Comm    | 0.056866   | 0.077093   | 0.095421   |   5.0 | 44.24
Output  | 0.00053184 | 0.00060557 | 0.00080242 |   0.0 |  0.35
Modify  | 0.014454   | 0.014812   | 0.015249   |   0.2 |  8.50
Other   |            | 0.0185     |            |       | 10.61

Nlocal:          90.25 ave          94 max          88 min
Histogram: 1 1 0 1 0 0 0 0 0 1
Nghost:             37 ave          42 max          30 min
Histogram: 1 0 0 0 0 1 0 0 1 1
Neighs:          301.5 ave         474 max         117 min
Histogram: 1 0 0 0 1 0 1 0 0 1

Total # of neighbors = 1206
Ave neighs/atom = 3.3407202
Neighbor list builds = 3509
Dangerous builds = 0
Total wall time: 0:00:00
