LAMMPS (11 Feb 2026 - Development - 557ec66658-modified)
OMP_NUM_THREADS environment is not set. Defaulting to 1 thread.
  using 1 OpenMP thread(s) per MPI task
Lattice spacing in x,y,z = 1.1655347 2.0187654 1.1655347
Created orthogonal box = (0 0 -0.58276737) to (58.276737 40.375308 0.58276737)
  2 by 2 by 1 MPI processor grid
Created 361 atoms
  using lattice units in orthogonal box = (0 0 -0.58276737) to (58.276737 40.375308 0.58276737)
  create_atoms CPU = 0.001 seconds
Generated 0 of 0 mixed pair_coeff terms from geometric mixing rule
ALL information ...
	version: 0.9.3
	grid: tensor
	number of processors: 2 x 2 y 1 z
	local load balancing ...
		trigger threshold: 0.9
Neighbor list info ...
  update: every = 1 steps, delay = 0 steps, check = yes
  max neighbors/atom: 2000, page size: 100000
  master list distance cutoff = 2.8
  ghost atom cutoff = 2.8
  binsize = 1.4, bins = 42 29 1
  1 neighbor lists, perpetual/occasional/extra = 1 0 0
  (1) pair lj/cut, perpetual
      attributes: half, newton on
      pair build: half/bin/atomonly/newton
      stencil: half/bin/2d
      bin: standard
Setting up Verlet run ...
  Unit style    : lj
  Current step  : 0
  Time step     : 0.005
Per MPI rank memory allocation (min/avg/max) = 2.939 | 3.002 | 3.066 Mbytes
   Step          Temp          E_pair         Press          f_5[1]         f_5[2]    
         0   25.701528     -29.143179     -1.2407285     -1             -1            
       100   26.269576     -29.713313      7.9052334      181            2.0055402    
       200   26.368336     -29.809962      1.6412462      112            1.2409972    
       300   26.479082     -29.920083      2.3678653      142            1.5734072    
       400   26.522239     -29.965537      6.6787858      142            1.5734072    
       500   25.725591     -29.168034      0.67065285     142            1.5734072    
       600   26.247693     -29.692706      7.9887712      141            1.5623269    
       700   26.237368     -29.676926      1.5987214      135            1.4958449    
       800   25.889643     -29.431589      4.6160859      135            1.4958449    
       900   23.635295     -27.372963      9.029962       137            1.5180055    
      1000   22.571904     -25.87422       1.8936085      125            1.3850416    
      1100   17.493795     -21.447274      9.502619       116            1.2853186    
      1200   17.214458     -20.726965      6.3578919      114            1.2631579    
      1300   16.424012     -19.757237      3.9028662      130            1.4404432    
      1400   15.006965     -18.089844      1.7732968      135            1.4958449    
      1500   13.758338     -16.825477      0.95338438     142            1.5734072    
      1600   13.82877      -16.810306      1.4248988      146            1.6177285    
      1700   13.429895     -16.699694      1.4899533      144            1.5955679    
      1800   12.838823     -15.707372      2.9312126      138            1.5290859    
      1900   12.982795     -15.761997      1.0885643      129            1.4293629    
      2000   12.104828     -14.878947      1.1543354      119            1.3185596    
      2100   11.986165     -14.755504      1.9619437      115            1.2742382    
      2200   11.635002     -14.453527      1.5245702      113            1.2520776    
      2300   11.539793     -14.118159      0.96858143     106            1.1745152    
      2400   11.671348     -14.257692      1.0861956      102            1.1301939    
      2500   11.422406     -14.110048      1.1929119      101            1.1191136    
      2600   11.399434     -14.056962      1.3078431      100            1.1080332    
      2700   11.483578     -14.136181      1.2313717      98             1.0858726    
      2800   11.358823     -14.011281      1.0055884      99             1.0969529    
      2900   10.929468     -13.528063      1.063344       102            1.1301939    
      3000   10.51155      -13.190359      1.0885086      104            1.1523546    
      3100   10.680206     -13.289309      1.1166705      104            1.1523546    
      3200   10.298443     -12.885667      1.2605639      106            1.1745152    
      3300   10.367473     -13.037076      1.4606012      108            1.1966759    
      3400   10.584155     -13.234267      1.2119113      115            1.2742382    
      3500   10.27946      -12.916663      1.1012971      115            1.2742382    
      3600   10.693791     -13.349806      1.1894626      117            1.2963989    
      3700   10.245332     -12.873669      1.2868905      116            1.2853186    
      3800   9.591284      -12.266507      1.2855423      108            1.1966759    
      3900   9.415085      -11.976604      1.2584083      110            1.2188366    
      4000   9.7582989     -12.445006      0.69396795     107            1.1855956    
      4100   9.5368101     -12.136722      1.3901928      104            1.1523546    
      4200   9.3858507     -11.927123      0.95826323     103            1.1412742    
      4300   9.0403097     -11.574583      0.61803507     106            1.1745152    
      4400   8.6507605     -11.197965      1.000755       102            1.1301939    
      4500   8.7732673     -11.254589      0.65658395     102            1.1301939    
      4600   8.6074813     -11.099328      1.344734       102            1.1301939    
      4700   8.5124532     -11.022165      1.0892118      103            1.1412742    
      4800   8.5318802     -11.00607       0.95705003     106            1.1745152    
      4900   8.1664305     -10.637787      0.9952322      101            1.1191136    
      5000   8.1348233     -10.581848      1.2316124      101            1.1191136    
      5100   8.1872437     -10.695093      0.75350947     99             1.0969529    
      5200   8.5028187     -11.010676      0.57565374     97             1.0747922    
      5300   8.238141      -10.717953      1.2817657      96             1.0637119    
      5400   8.3672402     -10.862506      0.63387623     94             1.0415512    
      5500   7.868586      -10.313614      0.87568797     99             1.0969529    
      5600   7.6788695     -10.120504      1.1459158      100            1.1080332    
      5700   7.8586107     -10.304527      0.8948908      99             1.0969529    
      5800   7.6825749     -10.112321      0.54248961     96             1.0637119    
      5900   7.3887394     -9.8140299      0.53676728     96             1.0637119    
      6000   7.493992      -9.8953283      0.66980184     95             1.0526316    
      6100   7.4279772     -9.8459233      0.92851517     97             1.0747922    
      6200   7.3992661     -9.8358538      0.74659005     96             1.0637119    
      6300   7.1925725     -9.5825976      0.7713543      99             1.0969529    
      6400   7.2965213     -9.7294543      0.87135312     100            1.1080332    
      6500   7.3310766     -9.7299518      0.678878       100            1.1080332    
      6600   7.50472       -9.9129442      0.64010524     102            1.1301939    
      6700   7.5354738     -9.9451099      0.8224976      106            1.1745152    
      6800   7.0919432     -9.4750968      0.51094641     104            1.1523546    
      6900   6.7729196     -9.167471       0.73641395     105            1.1634349    
      7000   6.9691511     -9.4066466      0.7019249      102            1.1301939    
      7100   6.7823752     -9.1549297      0.75063438     105            1.1634349    
      7200   6.755134      -9.1461973      0.66165687     104            1.1523546    
      7300   6.556912      -8.9176505      0.29215456     108            1.1966759    
      7400   6.7067673     -9.1612086      0.71644127     108            1.1966759    
      7500   6.5530956     -8.9141194      0.94481991     110            1.2188366    
      7600   6.8109342     -9.2292197      0.29784015     107            1.1855956    
      7700   6.4129696     -8.7701989      1.1504163      103            1.1412742    
      7800   6.5370719     -8.9067053      0.48164881     99             1.0969529    
      7900   6.6517094     -9.0431085      0.71528754     100            1.1080332    
      8000   6.3133165     -8.7022356      0.30643869     93             1.0304709    
      8100   6.3515202     -8.7570336      0.64060073     92             1.0193906    
      8200   6.5108373     -8.9409388      0.63088758     96             1.0637119    
      8300   5.8946272     -8.2585577      0.38950578     93             1.0304709    
      8400   6.5347786     -8.9001505      0.18611995     94             1.0415512    
      8500   6.0569135     -8.3960249      0.68925229     96             1.0637119    
      8600   6.530774      -8.9006598      0.83914164     95             1.0526316    
      8700   6.3008292     -8.6586066      0.94523465     98             1.0858726    
      8800   6.4638794     -8.8254625      0.69643125     101            1.1191136    
      8900   6.4909488     -8.8445359      0.64578214     102            1.1301939    
      9000   6.716218      -9.095003       0.31277423     103            1.1412742    
      9100   6.5028804     -8.8481832      0.35235702     100            1.1080332    
      9200   6.5132459     -8.8804248      0.27632709     98             1.0858726    
      9300   6.5191224     -8.9167117      0.76671308     95             1.0526316    
      9400   6.2678347     -8.6245914      0.37604061     93             1.0304709    
      9500   6.3877701     -8.7555736      0.38383        94             1.0415512    
      9600   5.9266705     -8.2767977      0.34821908     93             1.0304709    
      9700   5.9902242     -8.3273906      0.39967475     95             1.0526316    
      9800   6.0459862     -8.4079035      0.47871437     97             1.0747922    
      9900   6.0994173     -8.4673378      1.0117721      96             1.0637119    
     10000   6.1864284     -8.5464734      0.81655987     98             1.0858726    
Loop time of 0.15842 on 4 procs for 10000 steps with 361 atoms

Performance: 27269296.575 tau/day, 63123.372 timesteps/s, 22.788 Matom-step/s
99.9% CPU use with 4 MPI tasks x 1 OpenMP threads

MPI task timing breakdown:
Section |  min time  |  avg time  |  max time  |%varavg| %total
---------------------------------------------------------------
Pair    | 0.020157   | 0.028066   | 0.035278   |   3.7 | 17.72
Neigh   | 0.0295     | 0.036309   | 0.044564   |   3.5 | 22.92
Comm    | 0.053664   | 0.069221   | 0.084068   |   4.8 | 43.69
Output  | 0.00053359 | 0.00058576 | 0.0007361  |   0.0 |  0.37
Modify  | 0.011348   | 0.011649   | 0.011871   |   0.2 |  7.35
Other   |            | 0.01259    |            |       |  7.95

Nlocal:          90.25 ave          98 max          82 min
Histogram: 1 1 0 0 0 0 0 0 1 1
Nghost:          36.75 ave          44 max          30 min
Histogram: 1 0 0 0 1 1 0 0 0 1
Neighs:         288.75 ave         450 max         120 min
Histogram: 1 1 0 0 0 0 0 0 1 1

Total # of neighbors = 1155
Ave neighs/atom = 3.199446
Neighbor list builds = 3697
Dangerous builds = 0
Total wall time: 0:00:00
